\ Model Cl_25_Ins_9.lp
\ LP format - for model browsing. Use MPS format to capture full model detail.
Maximize
 
Subject To
 obj1: y[0] = 0
 obj2: y[1] = 0
 obj1_Exp: - y[0] + 98 x[0] + 96 x[1] + 94 x[2] + 90 x[3] + 83 x[4]
   + 79 x[5] + 79 x[6] + 71 x[7] + 70 x[8] + 69 x[9] + 67 x[10] + 60 x[11]
   + 53 x[12] + 49 x[13] + 35 x[14] + 28 x[15] + 28 x[16] + 19 x[17]
   + 17 x[18] + 9 x[19] + 5 x[20] + 5 x[21] + 5 x[22] + 4 x[23] + 2 x[24]
   = 0
 obj2_Exp: - y[1] + 4 x[0] + x[1] + 49 x[2] + 80 x[3] + 61 x[4] + 79 x[5]
   + 11 x[6] + 65 x[7] + 35 x[8] + 17 x[9] + 64 x[10] + 3 x[11] + 62 x[12]
   + 32 x[13] + 81 x[14] + 7 x[15] + 73 x[16] + 90 x[17] + 90 x[18]
   + 87 x[19] + 7 x[20] + 69 x[21] + 76 x[22] + 95 x[23] + 50 x[24] = 0
 Budget: 108 x[0] + 106 x[1] + 104 x[2] + 100 x[3] + 93 x[4] + 89 x[5]
   + 89 x[6] + 81 x[7] + 80 x[8] + 79 x[9] + 77 x[10] + 70 x[11] + 63 x[12]
   + 59 x[13] + 45 x[14] + 38 x[15] + 38 x[16] + 29 x[17] + 27 x[18]
   + 19 x[19] + 15 x[20] + 15 x[21] + 15 x[22] + 14 x[23] + 12 x[24]
   <= 492
Bounds
Binaries
 x[0] x[1] x[2] x[3] x[4] x[5] x[6] x[7] x[8] x[9] x[10] x[11] x[12] x[13]
 x[14] x[15] x[16] x[17] x[18] x[19] x[20] x[21] x[22] x[23] x[24]
Generals
 y[0] y[1]
End
